(set-logic ALL)
(declare-const item String)
(declare-const info String)
(declare-const indent Int)
(assert (< 0 (str.len info)))
(assert (not (< (str.len (str.at info 0)) 0)))
(assert (not (= (+ 0 (str.indexof (str.at info 0) "\u{a}" 0)) (- 1))))
(assert (not (< (+ 0 (str.indexof (str.at info 0) "\u{a}" 0)) 0)))
(assert (not (< (+ (+ 0 (str.indexof (str.at info 0) "\u{a}" 0)) 1) 0)))
(assert (not (< (str.len (str.at info 0)) 0)))
(assert (not (< (str.len (str.substr (str.at info 0) (+ (+ 0 (str.indexof (str.at info 0) "\u{a}" 0)) 1) (- (str.len (str.at info 0)) (+ (+ 0 (str.indexof (str.at info 0) "\u{a}" 0)) 1)))) 0)))
(assert (= (+ 0 (str.indexof (str.substr (str.at info 0) (+ (+ 0 (str.indexof (str.at info 0) "\u{a}" 0)) 1) (- (str.len (str.at info 0)) (+ (+ 0 (str.indexof (str.at info 0) "\u{a}" 0)) 1))) "\u{a}" 0)) (- 1)))
(assert (not (not (= item ""))))
(assert (< 1 (str.len info)))
(assert (not (< (str.len (str.at info 1)) 0)))
(assert (not (= (+ 0 (str.indexof (str.at info 1) "\u{a}" 0)) (- 1))))
(assert (not (< (+ 0 (str.indexof (str.at info 1) "\u{a}" 0)) 0)))
(assert (not (< (+ (+ 0 (str.indexof (str.at info 1) "\u{a}" 0)) 1) 0)))
(assert (not (< (str.len (str.at info 1)) 0)))
(assert (not (< (str.len (str.substr (str.at info 1) (+ (+ 0 (str.indexof (str.at info 1) "\u{a}" 0)) 1) (- (str.len (str.at info 1)) (+ (+ 0 (str.indexof (str.at info 1) "\u{a}" 0)) 1)))) 0)))
(assert (= (+ 0 (str.indexof (str.substr (str.at info 1) (+ (+ 0 (str.indexof (str.at info 1) "\u{a}" 0)) 1) (- (str.len (str.at info 1)) (+ (+ 0 (str.indexof (str.at info 1) "\u{a}" 0)) 1))) "\u{a}" 0)) (- 1)))
(assert (not (not (= item ""))))
(assert (< 2 (str.len info)))
(assert (not (< (str.len (str.at info 2)) 0)))
(assert (= (+ 0 (str.indexof (str.at info 2) "\u{a}" 0)) (- 1)))
(assert (not (not (= item ""))))
(assert (< 3 (str.len info)))
(assert (not (< (str.len (str.at info 3)) 0)))
(assert (not (= (+ 0 (str.indexof (str.at info 3) "\u{a}" 0)) (- 1))))
(assert (not (< (+ 0 (str.indexof (str.at info 3) "\u{a}" 0)) 0)))
(assert (not (< (+ (+ 0 (str.indexof (str.at info 3) "\u{a}" 0)) 1) 0)))
(assert (not (< (str.len (str.at info 3)) 0)))
(assert (not (< (str.len (str.substr (str.at info 3) (+ (+ 0 (str.indexof (str.at info 3) "\u{a}" 0)) 1) (- (str.len (str.at info 3)) (+ (+ 0 (str.indexof (str.at info 3) "\u{a}" 0)) 1)))) 0)))
(assert (= (+ 0 (str.indexof (str.substr (str.at info 3) (+ (+ 0 (str.indexof (str.at info 3) "\u{a}" 0)) 1) (- (str.len (str.at info 3)) (+ (+ 0 (str.indexof (str.at info 3) "\u{a}" 0)) 1))) "\u{a}" 0)) (- 1)))
(assert (not (not (= item ""))))
(assert (< 4 (str.len info)))
(check-sat)
(get-value (item))
(get-value (info))
(get-value (indent))
